c --- [ banner ] -------------------------------------------------------------
c 
c CaDiCaL Radically Simplified CDCL SAT Solver
c Copyright (c) 2016-2021 A. Biere, M. Fleury, N. Froleyks
c 
c Version 1.5.2 a5f15211db36c3956764e18194dd5bd63bf3b5e6
c g++ (GCC) 9.3.0 -Wall -Wextra -O3 -DNDEBUG
c Fri Oct 21 01:27:37 EDT 2022 Linux gra-login3 3.10.0-1160.66.1.el7.x86_64 x86_64
c 
c --- [ limit ] --------------------------------------------------------------
c 
c setting conflict limit to 200000 conflicts (due to '200000')
c 
c --- [ parsing input ] ------------------------------------------------------
c 
c reading DIMACS file from '33.cubes4995.adj'
c opening file to read '33.cubes4995.adj'
c found 'p cnf 6160 1595479' header
c parsed 1595479 clauses in 20.88 seconds process time
c closing file '33.cubes4995.adj'
c after reading 1457566802 bytes 1390.0 MB
c 
c --- [ options ] ------------------------------------------------------------
c 
c all options are set to their default value
c 
c --- [ solving ] ------------------------------------------------------------
c 
c time measured in process time since initialization
c 
c  seconds    reductions  redundant   irredundant
c          MB     restarts       trail       variables
c            level   conflicts       glue         remaining
c 
c * 20.88 1379  0 0   0    0    0  0% 0 1595422 2381 39%
c { 21.57 1422  0 0   0    0    0  0% 0 1595422 2381 39%
c i 24.71 1501 232 0  14   94   85 30% 18 1595422 2380 39%
c i 24.76 1501 225 0  15   98   88 30% 19 1595422 2379 39%
c i 29.31 1529 135 0  55  270  235 27% 27 1595422 2378 39%
c i 29.80 1530 134 0  58  298  262 27% 27 1595422 2377 39%
c - 33.76 1499 131 1  60  310  272 27% 27 390805 2377 39%
c i 34.02 1415 130 1  61  316  276 27% 27 390805 2376 39%
c i 34.59 1415 113 1  65  419  364 28% 28 390805 2375 39%
c i 35.69 1416 110 1  84  501  439 28% 29 390805 2374 39%
c i 36.50 1417 99 1  88  617  542 28% 28 390805 2373 39%
c i 36.63 1417 94 1  88  657  577 28% 27 390805 2372 39%
c i 36.74 1417 90 1  88  702  621 28% 26 390805 2371 38%
c i 36.79 1417 88 1  88  720  636 28% 25 390805 2370 38%
c i 37.01 1417 81 1  88  819  719 28% 24 390805 2369 38%
c i 37.05 1417 81 1  88  823  721 28% 24 390805 2368 38%
c i 37.10 1418 81 1  88  835  731 28% 24 390805 2367 38%
c i 37.18 1418 79 1  88  873  764 28% 24 390805 2366 38%
c i 37.18 1418 79 1  88  874  764 28% 24 390805 2365 38%
c i 37.18 1418 78 1  88  883  772 28% 24 390805 2364 38%
c 
c  seconds    reductions  redundant   irredundant
c          MB     restarts       trail       variables
c            level   conflicts       glue         remaining
c 
c i 37.19 1418 78 1  88  886  774 28% 24 390805 2363 38%
c i 37.19 1418 78 1  88  898  781 28% 24 390805 2362 38%
c i 37.20 1418 77 1  88  919  791 28% 24 390805 2361 38%
c i 37.20 1418 76 1  88  922  793 28% 24 390805 2360 38%
c i 37.22 1418 75 1  88  949  818 28% 24 390805 2359 38%
c } 37.48 1418 74 1  96 1000  861 28% 25 390805 2359 38%
c [ 37.48 1418  0 1  96 1000  861  0% 0 390805 2359 38%
c O 37.49 1418 13 1  96 1002  863 19% 3 390805 2359 38%
c i 37.90 1419 16 1  96 1049  888 23% 11 390805 2358 38%
c i 37.94 1419 17 1  96 1055  893 24% 12 390805 2357 38%
c i 37.96 1419 18 1  96 1063  899 25% 13 390805 2356 38%
c i 38.02 1419 21 1  96 1089  923 28% 16 390805 2355 38%
c i 38.04 1419 21 1  96 1098  930 28% 16 390805 2354 38%
c i 38.05 1419 21 1  96 1103  934 28% 17 390805 2353 38%
c i 38.17 1419 23 1  96 1183  994 30% 19 390805 2352 38%
c - 38.99 1551 24 2  96 1266  951 30% 19 390730 2352 38%
c i 39.25 1551 27 2  96 1314  990 30% 22 390730 2351 38%
c i 39.46 1551 30 2  96 1728 1300 31% 25 390730 2350 38%
c - 40.45 1551 29 3  97 2698 1557 31% 25 390724 2350 38%
c i 40.96 1551 29 3  97 2916 1699 55% 25 390724 2349 38%
c 
c  seconds    reductions  redundant   irredundant
c          MB     restarts       trail       variables
c            level   conflicts       glue         remaining
c 
c ] 41.02 1551 29 3  97 3001 1757 54% 25 390724 2349 38%
c { 41.02 1551 74 3  97 3001 1757 74% 25 390724 2349 38%
c F 41.08 1551 74 3  98 3004 1759 74% 25 390724 2349 38%
c i 41.08 1551 74 3  98 3004 1759 74% 25 390724 2292 37%
c i 41.29 1551 74 3 100 3009 1763 74% 25 390724 2291 37%
c i 41.32 1551 73 3 100 3014 1767 74% 24 390724 2290 37%
c i 41.48 1551 74 3 101 3023 1774 74% 25 390724 2289 37%
c i 41.61 1551 73 3 105 3040 1787 73% 25 390724 2288 37%
c i 42.28 1551 71 3 122 3158 1892 71% 26 390724 2287 37%
c i 42.58 1551 71 3 136 3220 1950 70% 26 390724 2286 37%
c i 43.12 1551 70 3 162 3345 2057 68% 27 390724 2285 37%
c i 44.02 1551 67 3 186 3565 2257 65% 27 390724 2284 37%
c i 45.11 1551 57 3 210 4294 2792 60% 26 390724 2283 37%
c i 45.39 1551 56 3 221 4417 2889 59% 26 390724 2282 37%
c - 47.01 1512 57 4 251 4608 2182 59% 27 340853 2282 37%
c i 47.21 1512 56 4 251 4660 2225 58% 27 340853 2281 37%
c d 48.35 1512 54 4 265 5000 2495 58% 26 340834 2273 37%
c p 53.81 1512 54 4 265 5000 6064 58% 26 340834 2208 36%
c d 54.41 1512 54 4 265 5000 5943 58% 26 340239 2206 36%
c # 57.35 1512 49 4 298 6006 6675 55% 25 340239 2206 36%
c 
c  seconds    reductions  redundant   irredundant
c          MB     restarts       trail       variables
c            level   conflicts       glue         remaining
c 
c - 58.13 1367 44 5 298 6906 2957 55% 24 340239 2206 36%
c } 58.18 1367 44 5 298 7004 3034 55% 24 340239 2206 36%
c [ 58.18 1367 29 5 298 7004 3034 54% 25 340239 2206 36%
c - 59.34 1367 27 6 300 9665 3210 54% 24 340239 2206 36%
c I 59.70 1367 27 6 300 10008 3454 54% 24 340239 2206 36%
c - 71.16 1368 24 7 302 12881 3545 50% 20 340239 2206 36%
c 2 74.98 1368 23 7 303 15000 5964 49% 19 340239 2206 36%
c p 77.24 1368 23 7 303 15000 8368 49% 19 340239 2206 36%
c ] 77.38 1368 23 7 303 15005 8371 49% 19 340239 2206 36%
c { 77.38 1368 44 7 303 15005 8371 55% 24 340239 2206 36%
c B 77.55 1368 44 7 303 15010 8376 55% 24 340239 2206 36%
c - 81.73 1369 41 8 360 16557 4463 54% 23 340239 2206 36%
c s 86.80 1368 37 8 395 18777 5930 53% 22 338878 2206 36%
c v 92.07 1369 37 8 395 18777 5930 53% 22 338863 2206 36%
c t 92.19 1369 37 8 395 18777 5921 53% 22 338853 2206 36%
c e 93.39 1369 37 8 395 18777 5599 53% 22 336714 1011 16%
c s 93.51 1369 37 8 395 18777 5598 53% 22 336306 1011 16%
c - 98.65 1369 36 9 511 20695 5333 66% 22 336306 1011 16%
c W 99.03 1369 36 9 511 21011 5576 67% 22 336306 1011 16%
c - 103.45 1369 32 10 596 25275 5829 67% 21 336306 1011 16%
c 
c  seconds     reductions    redundant   irredundant
c           MB      restarts        trail       variables
c             level     conflicts       glue         remaining
c 
c F 104.83 1369 30 10 602 28012 7589 67% 20 336306 1011 16%
c p 112.02 1369 31 10 886 30000 11442 67% 21 336306 1011 16%
c - 113.53 1369 32 11 921 30315 6681 67% 21 336306 1011 16%
c } 113.90 1369 31 11 922 31005 7193 67% 21 336306 1011 16%
c [ 113.90 1369 23 11 922 31005 7193 114% 19 336306 1011 16%
c - 117.44 1369 24 12 925 35815 6898 97% 20 336306 1011 16%
c B 117.65 1369 24 12 925 36016 7022 97% 21 336306 1011 16%
c - 120.32 1369 26 13 928 41770 6953 87% 22 336306 1011 16%
c W 122.81 1369 26 13 929 45018 8742 84% 22 336306 1011 16%
c - 124.21 1369 25 14 930 48183 7313 82% 22 336306 1011 16%
c p 126.92 1369 25 14 930 50001 10815 81% 22 336306 1011 16%
c s 128.27 1369 25 14 930 52291 12185 80% 22 335868 1011 16%
c v 133.01 1369 25 14 930 52291 12185 80% 22 335855 1011 16%
c t 133.17 1369 25 14 930 52291 12180 80% 22 335855 1011 16%
c e 134.24 1369 25 14 930 52291 12176 80% 22 335845 1005 16%
c s 134.42 1369 25 14 930 52291 12176 80% 22 335286 1005 16%
c O 137.19 1369 25 14 931 55019 13683 78% 22 335286 1005 16%
c - 137.39 1369 25 15 931 55054 7768 78% 22 335286 1005 16%
c ] 139.22 1369 25 15 935 59787 10583 77% 22 335286 1005 16%
c 1 139.22 1369 25 15 935 59787 10583 77% 22 335286 1005 16%
c 
c --- [ writing output ] -----------------------------------------------------
c 
c writing simplified CNF to DIMACS file 'simp/33.cubes4995.adj.simp1'
c 
c  seconds     reductions     redundant   irredundant
c           MB      restarts         trail       variables
c             level     conflicts        glue         remaining
c 
c * 139.22 1369 25 15 935 59787 10583 77% 22 335286 1005 16%
c opening file to write 'simp/33.cubes4995.adj.simp1'
c writing 'p cnf 6160 335286' header
c closing file 'simp/33.cubes4995.adj.simp1'
c after writing 154911208 bytes 147.7 MB
c wrote 335286 clauses in 1.10 seconds process time
c 
c --- [ writing extension ] --------------------------------------------------
c 
c writing extension stack to 'simp/33.cubes4995.adj.ext1'
c opening file to write 'simp/33.cubes4995.adj.ext1'
c closing file 'simp/33.cubes4995.adj.ext1'
c after writing 80830 bytes 0.1 MB
c wrote 3642 witnesses in 0.00 seconds process time
c 
c --- [ result ] -------------------------------------------------------------
c 
s SATISFIABLE
c 
c --- [ run-time profiling ] -------------------------------------------------
c 
c process time taken by individual solving procedures
c (percentage relative to process time for solving)
c 
c        90.42   76.41% search
c        53.29   45.04% unstable
c        35.12   29.68% stable
c        27.91   23.59% simplify
c        20.88   17.65% parse
c        11.08    9.36% probe
c        10.22    8.63% vivify
c         4.45    3.76% elim
c         1.32    1.12% walk
c         0.68    0.58% lucky
c         0.58    0.49% subsume
c         0.18    0.15% ternary
c   =================================
c       118.33   84.33% solve
c 
c last line shows process time for solving
c (percentage relative to total process time)
c 
c --- [ statistics ] ---------------------------------------------------------
c 
c chronological:             10332        17.28 %  of conflicts
c conflicts:                 59787       505.24    per second
c decisions:                126178      1066.30    per second
c eliminated:                 1201        19.50 %  of all variables
c fixed:                       800        12.99 %  of all variables
c learned:                   58536        97.91 %  per conflict
c learned_lits:           10775904       100.00 %  learned literals
c minimized:                     0         0.00 %  learned literals
c shrunken:                7578823        70.33 %  learned literals
c minishrunken:             562329         5.22 %  learned literals
c propagations:            5687297         0.05 M  per second
c reduced:                   28387        47.48 %  per conflict
c rephased:                     10      5978.70    interval
c restarts:                    935        63.94    interval
c stabilizing:                   3        64.87 %  of conflicts
c substituted:                  10         0.16 %  of all variables
c subsumed:                  22254         0.65 %  of all clauses
c strengthened:               8553         0.25 %  of all clauses
c ternary:                    3596         0.64 %  of resolved
c vivified:                     51         0.00 %  of all clauses
c walked:                        2     29893.50    interval
c weakened:                   2842         3.00    average size
c 
c seconds are measured in process time for solving
c 
c --- [ resources ] ----------------------------------------------------------
c 
c total process time since initialization:       140.32    seconds
c total real time since initialization:          140.76    seconds
c maximum resident set size of process:         1735.61    MB
c 
c --- [ shutting down ] ------------------------------------------------------
c 
c exit 10
WARNING! DIMACS header mismatch: wrong number of variables.
============================[ Problem Statistics ]=============================
|                                                                             |
|  Number of variables:          3756                                         |
|  Number of clauses:          335286                                         |
|  Parse time:                   2.12 s                                       |
|  Simplification time:          0.06 s                                       |
|                                                                             |
============================[ Search Statistics ]====================================================
| Conflicts |          ORIGINAL         |          LEARNT          | Num Sols |      SUBGRAPHS      |
|           |    Vars  Clauses Literals |    Limit  Clauses Lit/Cl |          | Canonical Noncanon. |
=====================================================================================================
|       112 |    3664   335298 33687514 |     2000      112    139 |        0 |        16        12 |
|       266 |    3664   335302 33687580 |     2000      266    126 |        0 |        20        16 |
|       502 |    3664   335313 33687876 |     2000      502    113 |        0 |        38        27 |
|       865 |    3664   335339 33688321 |     2000      865    116 |        0 |        44        53 |
|      1407 |    3664   335375 33688943 |     2000     1407    106 |        0 |        67        89 |
|      2343 |    3664   335552 33692318 |     3602     1345     64 |        0 |       123       266 |
|      3542 |    3664   335612 33693166 |     3602     2544     85 |        0 |       140       326 |
|      5495 |    3664   335857 33698492 |     5001     2696     64 |        0 |       216       571 |
|      8154 |    3664   335954 33700683 |     6304     2858     54 |        0 |       280       668 |
|     12548 |    3664   336504 33711468 |     7554     4102     51 |        0 |       464      1218 |
|     18561 |    3664   336751 33716817 |     8777     6338     61 |        0 |       531      1465 |
|     27527 |    3664   337068 33723055 |    11200     5927     53 |        0 |       690      1782 |
|     41620 |    3664   338187 33743918 |    13608     8228     56 |        0 |      1098      2901 |
|     61828 |    3664   338934 33756376 |    16007    14235     74 |        0 |      1391      3648 |
|     92329 |    3664   340243 33779439 |    19605    18934     84 |        0 |      1718      4957 |
|    137728 |    3664   341853 33804158 |    24406    21534     80 |        0 |      2147      6567 |
|    204795 |    3664   343236 33828956 |    30410    21605     75 |        0 |      2752      7950 |
|    308180 |    3664   348095 33913359 |    37612    24792     68 |        0 |      4411     12809 |
|    460306 |    3664   352432 33986569 |    46015    32721     69 |        0 |      5641     17146 |
|    692682 |    3664   363125 34201046 |    56814    36496     64 |        0 |      8396     27839 |
|   1041526 |    3664   379444 34520425 |    70017    39943     51 |        0 |     12717     44158 |
|   1551311 |    3664   390441 34729606 |    85609    47920     50 |        0 |     15671     55155 |
|   2318266 |    3664   409214 35140614 |   104824    58090     50 |        0 |     19468     73928 |
|   3459599 |    3664   428273 35533044 |   127622   101221     67 |        0 |     23776     92987 |
|   5165365 |    3664   450628 35967839 |   156414   110179     59 |        0 |     30419    115342 |
|   7731331 |    3664   491478 36846371 |   191226   164757     71 |        0 |     44528    156192 |
|  11536158 |    3664   508630 37239480 |   234433   149991     49 |        0 |     49861    173344 |
|  17256209 |    3647   434269 35744767 |   287201   145610     46 |        1 |     59411    211882 |
|  25857935 |    3593   343323 27288763 |   350118   309053     73 |        1 |     79387    291339 |
=====================================================================================================
Number of solutions   : 1
Canonical subgraphs   : 89029          (17 /sec)
          order  3    : 1              (200000 /sec)
          order  4    : 1              (500000 /sec)
          order  5    : 1              (250000 /sec)
          order  6    : 1              (55556 /sec)
          order  7    : 1              (8850 /sec)
          order  8    : 2              (1389 /sec)
          order  9    : 7              (353 /sec)
          order 10    : 30             (108 /sec)
          order 11    : 146            (38 /sec)
          order 12    : 1201           (22 /sec)
          order 13    : 5716           (12 /sec)
          order 14    : 28309          (16 /sec)
          order 15    : 32498          (18 /sec)
          order 16    : 15701          (19 /sec)
          order 17    : 3318           (15 /sec)
          order 18    : 1166           (12 /sec)
          order 19    : 504            (12 /sec)
          order 20    : 223            (12 /sec)
          order 21    : 202            (12 /sec)
          order 22    : 1              (0 /sec)
Noncanonical subgraphs: 355497         (233 /sec)
          order  3    : 0              (-nan /sec)
          order  4    : 0              (-nan /sec)
          order  5    : 0              (-nan /sec)
          order  6    : 0              (-nan /sec)
          order  7    : 0              (-nan /sec)
          order  8    : 0              (-nan /sec)
          order  9    : 0              (-nan /sec)
          order 10    : 0              (-nan /sec)
          order 11    : 0              (-nan /sec)
          order 12    : 0              (-nan /sec)
          order 13    : 20385          (3781 /sec)
          order 14    : 107139         (1218 /sec)
          order 15    : 51514          (1027 /sec)
          order 16    : 169865         (132 /sec)
          order 17    : 5380           (85 /sec)
          order 18    : 1000           (51 /sec)
          order 19    : 0              (-nan /sec)
          order 20    : 1              (41667 /sec)
          order 21    : 0              (-nan /sec)
Canonicity checking   : 5385.15 s
Noncanonicity checking: 1528.91 s
Total canonicity time : 6914.06 s
database reductions   : 312
restarts              : 40958
conflicts             : 29894109       (1115 /sec)
decisions             : 36069187       (0.00 % random) (1345 /sec)
propagations          : 1572567638     (58637 /sec)
conflict literals     : 3128530633     (57.27 % deleted)
actual reward         : 0.235388
Memory used           : 668.00 MB
CPU time              : 26818.5 s

UNSATISFIABLE
